c File: instances/10_0.60_3.col
c
c Description: Random graph of size 10 vertices and P(0.6) of edges between any two vertices.
p col 10 45
e 1 4
e 1 6
e 1 7
e 1 8
e 1 9
e 2 5
e 2 6
e 2 7
e 2 8
e 2 9
e 2 10
e 3 4
e 3 6
e 3 9
e 3 10
e 4 5
e 4 8
e 5 6
e 5 8
e 5 9
e 6 7
e 6 8
e 6 10
e 8 10
e 9 10